\ENCODING=ISO-8859-1
\Problem name: ilog.cplex

Minimize
 obj1: 93220 x1 + 96425 x2 + 105637 x3 + 100776 x4 + 102842 x5 + 92054 x6
       + 99561 x7 + 106121 x8 + 96919 x9 + 103126 x10 + 95237 x11 + 105466 x12
       + 109878 x13 + 105022 x14 + 100581 x15 + 94630 x16 + 102600 x17
       + 99764 x18 + 100191 x19 + 91825 x20 + 107948 x21 + 102319 x22
       + 91970 x23 + 98222 x24 + 94915 x25 + 101754 x26 + 91135 x27 + 93918 x28
       + 99824 x29 + 99776 x30 + 105706 x31 + 106653 x32 + 93317 x33
       + 93993 x34 + 108273 x35 + 108298 x36 + 97844 x37 + 108774 x38
       + 105056 x39 + 92461 x40 + 101922 x41 + 102651 x42 + 95221 x43
       + 105454 x44 + 94672 x45 + 97979 x46 + 100878 x47 + 102437 x48
       + 106953 x49 + 105922 x50 + 97815 x51 + 104313 x52 + 102957 x53
       + 107471 x54 + 102566 x55 + 99833 x56 + 104631 x57 + 108408 x58
       + 109022 x59 + 95322 x60 + 101752 x61 + 90088 x62 + 102050 x63
       + 92601 x64 + 98050 x65 + 100563 x66 + 101603 x67 + 91510 x68
       + 93693 x69 + 103364 x70 + 105140 x71 + 100407 x72 + 101758 x73
       + 101000 x74 + 95508 x75 + 106704 x76 + 103165 x77 + 92604 x78
       + 108760 x79 + 98700 x80 + 95957 x81 + 90647 x82 + 99375 x83 + 93725 x84
       + 100619 x85 + 100748 x86 + 93945 x87 + 107025 x88 + 109551 x89
       + 93316 x90 + 108655 x91 + 90821 x92 + 95866 x93 + 106055 x94
       + 100721 x95 + 103631 x96 + 104344 x97 + 92374 x98 + 109454 x99
       + 96199 x100 + 102293 x101 + 104236 x102 + 109621 x103 + 99415 x104
       + 100122 x105 + 98448 x106 + 92119 x107 + 107485 x108 + 103299 x109
       + 104483 x110 + 109620 x111 + 101969 x112 + 109020 x113 + 102943 x114
       + 109408 x115 + 104915 x116 + 95543 x117 + 101107 x118 + 97648 x119
       + 95288 x120 + 101059 x121 + 94641 x122 + 91132 x123 + 108301 x124
       + 91691 x125 + 105534 x126 + 104485 x127 + 102266 x128 + 97640 x129
       + 96316 x130 + 104600 x131 + 96168 x132 + 103369 x133 + 94532 x134
       + 96252 x135 + 92846 x136 + 100262 x137 + 95997 x138 + 100695 x139
       + 105112 x140 + 108318 x141 + 90535 x142 + 92481 x143 + 95039 x144
       + 107214 x145 + 109701 x146 + 108837 x147 + 100343 x148 + 106485 x149
       + 92423 x150 + 101532 x151 + 94363 x152 + 103776 x153 + 106988 x154
       + 101843 x155 + 100306 x156 + 99147 x157 + 90771 x158 + 108741 x159
       + 94041 x160 + 108506 x161 + 92916 x162 + 95148 x163 + 95181 x164
       + 109686 x165 + 99747 x166 + 104313 x167 + 90407 x168 + 93478 x169
       + 95915 x170 + 96025 x171 + 96185 x172 + 103147 x173 + 91208 x174
       + 94661 x175 + 90639 x176 + 97206 x177 + 97515 x178 + 108902 x179
       + 103786 x180 + 99981 x181 + 93376 x182 + 95009 x183 + 100661 x184
       + 94344 x185 + 99147 x186 + 98204 x187 + 102804 x188 + 91520 x189
       + 107122 x190 + 90041 x191 + 90194 x192 + 103949 x193 + 107809 x194
       + 103532 x195 + 107880 x196 + 108950 x197 + 106119 x198 + 92387 x199
       + 109440 x200 + 102807 x201 + 91611 x202 + 92458 x203 + 96541 x204
       + 103118 x205 + 105864 x206 + 106169 x207 + 104809 x208 + 101940 x209
       + 95920 x210 + 107148 x211 + 90765 x212 + 92543 x213 + 107929 x214
       + 101773 x215 + 92084 x216 + 106877 x217 + 91263 x218 + 99994 x219
       + 94581 x220 + 101460 x221 + 91585 x222 + 98316 x223 + 91160 x224
       + 96617 x225 + 94178 x226 + 108268 x227 + 94414 x228 + 106329 x229
       + 99028 x230 + 99908 x231 + 98279 x232 + 94402 x233 + 97159 x234
       + 98653 x235 + 94970 x236 + 96771 x237 + 96326 x238 + 98148 x239
       + 104850 x240 + 99437 x241 + 93407 x242 + 91895 x243 + 108922 x244
       + 96872 x245 + 90707 x246 + 101992 x247 + 106322 x248 + 96706 x249
       + 122415 x250 + 19083 x251 + 20998 x252 + 18163 x253 + 18082 x254
       + 19961 x255 + 21746 x256 + 21629 x257 + 18093 x258 + 21925 x259
       + 19063 x260 + 20222 x261 + 18400 x262 + 21835 x263 + 21511 x264
       + 18397 x265 + 19352 x266 + 20072 x267 + 20418 x268 + 21011 x269
       + 21660 x270 + 20800 x271 + 20913 x272 + 19677 x273 + 18446 x274
       + 21442 x275 + 20226 x276 + 21688 x277 + 18946 x278 + 20951 x279
       + 19943 x280 + 18508 x281 + 18683 x282 + 18880 x283 + 18023 x284
       + 20913 x285 + 20261 x286 + 20008 x287 + 18885 x288 + 20338 x289
       + 21585 x290 + 18477 x291 + 21763 x292 + 18848 x293 + 20440 x294
       + 18897 x295 + 18775 x296 + 19349 x297 + 19732 x298 + 19820 x299
       + 23162 x300
Subject To
 c1:   x13 + x19 - x21 - x24 - x27 - x29 + x34 + x35 + x40 + x42  = -1
 c2:   x63 + x69 - x71 - x74 - x77 - x79 + x84 + x85 + x90 + x92  = 0
 c3:   x113 + x119 - x121 - x124 - x127 - x129 + x134 + x135 + x140 + x142  = 0
 c4:   x163 + x169 - x171 - x174 - x177 - x179 + x184 + x185 + x190 + x192  = 0
 c5:   x213 + x219 - x221 - x224 - x227 - x229 + x234 + x235 + x240 + x242  = 0
 c6:   - x4 + x18 - x20 - x32 - x35 + x37 + x38 - x44 + x47 - x49  = 1
 c7:   - x54 + x68 - x70 - x82 - x85 + x87 + x88 - x94 + x97 - x99  = -1
 c8:   - x104 + x118 - x120 - x132 - x135 + x137 + x138 - x144 + x147 - x149
        = 1
 c9:   - x154 + x168 - x170 - x182 - x185 + x187 + x188 - x194 + x197 - x199
        = 0
 c10:  - x204 + x218 - x220 - x232 - x235 + x237 + x238 - x244 + x247 - x249
        = 0
 c11:  x5 + x12 - x17 + x20 - x22 + x24 - x26 - x30 - x38 + x41 - x42 + x43
       + x46  = 0
 c12:  x55 + x62 - x67 + x70 - x72 + x74 - x76 - x80 - x88 + x91 - x92 + x93
       + x96  = 0
 c13:  x105 + x112 - x117 + x120 - x122 + x124 - x126 - x130 - x138 + x141
       - x142 + x143 + x146  = 0
 c14:  x155 + x162 - x167 + x170 - x172 + x174 - x176 - x180 - x188 + x191
       - x192 + x193 + x196  = 1
 c15:  x205 + x212 - x217 + x220 - x222 + x224 - x226 - x230 - x238 + x241
       - x242 + x243 + x246  = 0
 c16:  - x7 + x10 - x12 + x15 - x18 + x21 - x34 + x39  = 0
 c17:  - x57 + x60 - x62 + x65 - x68 + x71 - x84 + x89  = 0
 c18:  - x107 + x110 - x112 + x115 - x118 + x121 - x134 + x139  = 0
 c19:  - x157 + x160 - x162 + x165 - x168 + x171 - x184 + x189  = 0
 c20:  - x207 + x210 - x212 + x215 - x218 + x221 - x234 + x239  = 0
 c21:  x1 - x3 - x5 - x11 - x13 + x17 + x31 + x33 - x36 - x45 - x47  = 0
 c22:  x51 - x53 - x55 - x61 - x63 + x67 + x81 + x83 - x86 - x95 - x97  = 0
 c23:  x101 - x103 - x105 - x111 - x113 + x117 + x131 + x133 - x136 - x145
       - x147  = -1
 c24:  x151 - x153 - x155 - x161 - x163 + x167 + x181 + x183 - x186 - x195
       - x197  = 0
 c25:  x201 - x203 - x205 - x211 - x213 + x217 + x231 + x233 - x236 - x245
       - x247  = 0
 c26:  x3 - x6 - x8 - x9 + x16 + x22 + x27 - x33 - x37 + x44  = 0
 c27:  x53 - x56 - x58 - x59 + x66 + x72 + x77 - x83 - x87 + x94  = 1
 c28:  x103 - x106 - x108 - x109 + x116 + x122 + x127 - x133 - x137 + x144  = 0
 c29:  x153 - x156 - x158 - x159 + x166 + x172 + x177 - x183 - x187 + x194  = 0
 c30:  x203 - x206 - x208 - x209 + x216 + x222 + x227 - x233 - x237 + x244  = 0
 c31:  x4 + x7 + x9 - x10 + x11 - x16 + x25 + x30 - x43 + x48  = 0
 c32:  x54 + x57 + x59 - x60 + x61 - x66 + x75 + x80 - x93 + x98  = 0
 c33:  x104 + x107 + x109 - x110 + x111 - x116 + x125 + x130 - x143 + x148  = 0
 c34:  x154 + x157 + x159 - x160 + x161 - x166 + x175 + x180 - x193 + x198  = 0
 c35:  x204 + x207 + x209 - x210 + x211 - x216 + x225 + x230 - x243 + x248  = 0
 c36:  - x1 + x2 + x23 - x28 + x36 - x46 - x48 + x49  = 0
 c37:  - x51 + x52 + x73 - x78 + x86 - x96 - x98 + x99  = 0
 c38:  - x101 + x102 + x123 - x128 + x136 - x146 - x148 + x149  = 0
 c39:  - x151 + x152 + x173 - x178 + x186 - x196 - x198 + x199  = 0
 c40:  - x201 + x202 + x223 - x228 + x236 - x246 - x248 + x249  = -1
 c41:  x8 - x14 - x23 + x26 + x29 - x31 - x39 - x40 - x41 + x50  = 0
 c42:  x58 - x64 - x73 + x76 + x79 - x81 - x89 - x90 - x91 + x100  = 0
 c43:  x108 - x114 - x123 + x126 + x129 - x131 - x139 - x140 - x141 + x150  = 0
 c44:  x158 - x164 - x173 + x176 + x179 - x181 - x189 - x190 - x191 + x200  = 0
 c45:  x208 - x214 - x223 + x226 + x229 - x231 - x239 - x240 - x241 + x250  = 0
 c46:  - x2 + x6 + x14 - x15 - x19 - x25 + x28 + x32 + x45 - x50  = 0
 c47:  - x52 + x56 + x64 - x65 - x69 - x75 + x78 + x82 + x95 - x100  = 0
 c48:  - x102 + x106 + x114 - x115 - x119 - x125 + x128 + x132 + x145 - x150
        = 0
 c49:  - x152 + x156 + x164 - x165 - x169 - x175 + x178 + x182 + x195 - x200
        = -1
 c50:  - x202 + x206 + x214 - x215 - x219 - x225 + x228 + x232 + x245 - x250
        = 1
 c51:  4 x1 + 4 x51 + 4 x101 + 4 x151 + 4 x201 - 10 x251 <= 0
 c52:  4 x2 + 4 x52 + 4 x102 + 4 x152 + 4 x202 - 9 x252 <= 0
 c53:  4 x3 + 4 x53 + 4 x103 + 4 x153 + 4 x203 - 11 x253 <= 0
 c54:  4 x4 + 4 x54 + 4 x104 + 4 x154 + 4 x204 - 9 x254 <= 0
 c55:  4 x5 + 4 x55 + 4 x105 + 4 x155 + 4 x205 - 10 x255 <= 0
 c56:  4 x6 + 4 x56 + 4 x106 + 4 x156 + 4 x206 - 10 x256 <= 0
 c57:  4 x7 + 4 x57 + 4 x107 + 4 x157 + 4 x207 - 11 x257 <= 0
 c58:  4 x8 + 4 x58 + 4 x108 + 4 x158 + 4 x208 - 10 x258 <= 0
 c59:  4 x9 + 4 x59 + 4 x109 + 4 x159 + 4 x209 - 10 x259 <= 0
 c60:  4 x10 + 4 x60 + 4 x110 + 4 x160 + 4 x210 - 10 x260 <= 0
 c61:  4 x11 + 4 x61 + 4 x111 + 4 x161 + 4 x211 - 10 x261 <= 0
 c62:  4 x12 + 4 x62 + 4 x112 + 4 x162 + 4 x212 - 10 x262 <= 0
 c63:  4 x13 + 4 x63 + 4 x113 + 4 x163 + 4 x213 - 10 x263 <= 0
 c64:  4 x14 + 4 x64 + 4 x114 + 4 x164 + 4 x214 - 11 x264 <= 0
 c65:  4 x15 + 4 x65 + 4 x115 + 4 x165 + 4 x215 - 9 x265 <= 0
 c66:  4 x16 + 4 x66 + 4 x116 + 4 x166 + 4 x216 - 11 x266 <= 0
 c67:  4 x17 + 4 x67 + 4 x117 + 4 x167 + 4 x217 - 11 x267 <= 0
 c68:  4 x18 + 4 x68 + 4 x118 + 4 x168 + 4 x218 - 10 x268 <= 0
 c69:  4 x19 + 4 x69 + 4 x119 + 4 x169 + 4 x219 - 9 x269 <= 0
 c70:  4 x20 + 4 x70 + 4 x120 + 4 x170 + 4 x220 - 9 x270 <= 0
 c71:  4 x21 + 4 x71 + 4 x121 + 4 x171 + 4 x221 - 9 x271 <= 0
 c72:  4 x22 + 4 x72 + 4 x122 + 4 x172 + 4 x222 - 9 x272 <= 0
 c73:  4 x23 + 4 x73 + 4 x123 + 4 x173 + 4 x223 - 10 x273 <= 0
 c74:  4 x24 + 4 x74 + 4 x124 + 4 x174 + 4 x224 - 10 x274 <= 0
 c75:  4 x25 + 4 x75 + 4 x125 + 4 x175 + 4 x225 - 10 x275 <= 0
 c76:  4 x26 + 4 x76 + 4 x126 + 4 x176 + 4 x226 - 10 x276 <= 0
 c77:  4 x27 + 4 x77 + 4 x127 + 4 x177 + 4 x227 - 10 x277 <= 0
 c78:  4 x28 + 4 x78 + 4 x128 + 4 x178 + 4 x228 - 9 x278 <= 0
 c79:  4 x29 + 4 x79 + 4 x129 + 4 x179 + 4 x229 - 9 x279 <= 0
 c80:  4 x30 + 4 x80 + 4 x130 + 4 x180 + 4 x230 - 10 x280 <= 0
 c81:  4 x31 + 4 x81 + 4 x131 + 4 x181 + 4 x231 - 9 x281 <= 0
 c82:  4 x32 + 4 x82 + 4 x132 + 4 x182 + 4 x232 - 10 x282 <= 0
 c83:  4 x33 + 4 x83 + 4 x133 + 4 x183 + 4 x233 - 11 x283 <= 0
 c84:  4 x34 + 4 x84 + 4 x134 + 4 x184 + 4 x234 - 11 x284 <= 0
 c85:  4 x35 + 4 x85 + 4 x135 + 4 x185 + 4 x235 - 10 x285 <= 0
 c86:  4 x36 + 4 x86 + 4 x136 + 4 x186 + 4 x236 - 9 x286 <= 0
 c87:  4 x37 + 4 x87 + 4 x137 + 4 x187 + 4 x237 - 10 x287 <= 0
 c88:  4 x38 + 4 x88 + 4 x138 + 4 x188 + 4 x238 - 9 x288 <= 0
 c89:  4 x39 + 4 x89 + 4 x139 + 4 x189 + 4 x239 - 10 x289 <= 0
 c90:  4 x40 + 4 x90 + 4 x140 + 4 x190 + 4 x240 - 11 x290 <= 0
 c91:  4 x41 + 4 x91 + 4 x141 + 4 x191 + 4 x241 - 11 x291 <= 0
 c92:  4 x42 + 4 x92 + 4 x142 + 4 x192 + 4 x242 - 10 x292 <= 0
 c93:  4 x43 + 4 x93 + 4 x143 + 4 x193 + 4 x243 - 11 x293 <= 0
 c94:  4 x44 + 4 x94 + 4 x144 + 4 x194 + 4 x244 - 9 x294 <= 0
 c95:  4 x45 + 4 x95 + 4 x145 + 4 x195 + 4 x245 - 10 x295 <= 0
 c96:  4 x46 + 4 x96 + 4 x146 + 4 x196 + 4 x246 - 10 x296 <= 0
 c97:  4 x47 + 4 x97 + 4 x147 + 4 x197 + 4 x247 - 10 x297 <= 0
 c98:  4 x48 + 4 x98 + 4 x148 + 4 x198 + 4 x248 - 11 x298 <= 0
 c99:  4 x49 + 4 x99 + 4 x149 + 4 x199 + 4 x249 - 10 x299 <= 0
 c100: 4 x50 + 4 x100 + 4 x150 + 4 x200 + 4 x250 - 12 x300 <= 0
Bounds
 0 <= x1 <= 1
 0 <= x2 <= 1
 0 <= x3 <= 1
 0 <= x4 <= 1
 0 <= x5 <= 1
 0 <= x6 <= 1
 0 <= x7 <= 1
 0 <= x8 <= 1
 0 <= x9 <= 1
 0 <= x10 <= 1
 0 <= x11 <= 1
 0 <= x12 <= 1
 0 <= x13 <= 1
 0 <= x14 <= 1
 0 <= x15 <= 1
 0 <= x16 <= 1
 0 <= x17 <= 1
 0 <= x18 <= 1
 0 <= x19 <= 1
 0 <= x20 <= 1
 0 <= x21 <= 1
 0 <= x22 <= 1
 0 <= x23 <= 1
 0 <= x24 <= 1
 0 <= x25 <= 1
 0 <= x26 <= 1
 0 <= x27 <= 1
 0 <= x28 <= 1
 0 <= x29 <= 1
 0 <= x30 <= 1
 0 <= x31 <= 1
 0 <= x32 <= 1
 0 <= x33 <= 1
 0 <= x34 <= 1
 0 <= x35 <= 1
 0 <= x36 <= 1
 0 <= x37 <= 1
 0 <= x38 <= 1
 0 <= x39 <= 1
 0 <= x40 <= 1
 0 <= x41 <= 1
 0 <= x42 <= 1
 0 <= x43 <= 1
 0 <= x44 <= 1
 0 <= x45 <= 1
 0 <= x46 <= 1
 0 <= x47 <= 1
 0 <= x48 <= 1
 0 <= x49 <= 1
 0 <= x50 <= 1
 0 <= x51 <= 1
 0 <= x52 <= 1
 0 <= x53 <= 1
 0 <= x54 <= 1
 0 <= x55 <= 1
 0 <= x56 <= 1
 0 <= x57 <= 1
 0 <= x58 <= 1
 0 <= x59 <= 1
 0 <= x60 <= 1
 0 <= x61 <= 1
 0 <= x62 <= 1
 0 <= x63 <= 1
 0 <= x64 <= 1
 0 <= x65 <= 1
 0 <= x66 <= 1
 0 <= x67 <= 1
 0 <= x68 <= 1
 0 <= x69 <= 1
 0 <= x70 <= 1
 0 <= x71 <= 1
 0 <= x72 <= 1
 0 <= x73 <= 1
 0 <= x74 <= 1
 0 <= x75 <= 1
 0 <= x76 <= 1
 0 <= x77 <= 1
 0 <= x78 <= 1
 0 <= x79 <= 1
 0 <= x80 <= 1
 0 <= x81 <= 1
 0 <= x82 <= 1
 0 <= x83 <= 1
 0 <= x84 <= 1
 0 <= x85 <= 1
 0 <= x86 <= 1
 0 <= x87 <= 1
 0 <= x88 <= 1
 0 <= x89 <= 1
 0 <= x90 <= 1
 0 <= x91 <= 1
 0 <= x92 <= 1
 0 <= x93 <= 1
 0 <= x94 <= 1
 0 <= x95 <= 1
 0 <= x96 <= 1
 0 <= x97 <= 1
 0 <= x98 <= 1
 0 <= x99 <= 1
 0 <= x100 <= 1
 0 <= x101 <= 1
 0 <= x102 <= 1
 0 <= x103 <= 1
 0 <= x104 <= 1
 0 <= x105 <= 1
 0 <= x106 <= 1
 0 <= x107 <= 1
 0 <= x108 <= 1
 0 <= x109 <= 1
 0 <= x110 <= 1
 0 <= x111 <= 1
 0 <= x112 <= 1
 0 <= x113 <= 1
 0 <= x114 <= 1
 0 <= x115 <= 1
 0 <= x116 <= 1
 0 <= x117 <= 1
 0 <= x118 <= 1
 0 <= x119 <= 1
 0 <= x120 <= 1
 0 <= x121 <= 1
 0 <= x122 <= 1
 0 <= x123 <= 1
 0 <= x124 <= 1
 0 <= x125 <= 1
 0 <= x126 <= 1
 0 <= x127 <= 1
 0 <= x128 <= 1
 0 <= x129 <= 1
 0 <= x130 <= 1
 0 <= x131 <= 1
 0 <= x132 <= 1
 0 <= x133 <= 1
 0 <= x134 <= 1
 0 <= x135 <= 1
 0 <= x136 <= 1
 0 <= x137 <= 1
 0 <= x138 <= 1
 0 <= x139 <= 1
 0 <= x140 <= 1
 0 <= x141 <= 1
 0 <= x142 <= 1
 0 <= x143 <= 1
 0 <= x144 <= 1
 0 <= x145 <= 1
 0 <= x146 <= 1
 0 <= x147 <= 1
 0 <= x148 <= 1
 0 <= x149 <= 1
 0 <= x150 <= 1
 0 <= x151 <= 1
 0 <= x152 <= 1
 0 <= x153 <= 1
 0 <= x154 <= 1
 0 <= x155 <= 1
 0 <= x156 <= 1
 0 <= x157 <= 1
 0 <= x158 <= 1
 0 <= x159 <= 1
 0 <= x160 <= 1
 0 <= x161 <= 1
 0 <= x162 <= 1
 0 <= x163 <= 1
 0 <= x164 <= 1
 0 <= x165 <= 1
 0 <= x166 <= 1
 0 <= x167 <= 1
 0 <= x168 <= 1
 0 <= x169 <= 1
 0 <= x170 <= 1
 0 <= x171 <= 1
 0 <= x172 <= 1
 0 <= x173 <= 1
 0 <= x174 <= 1
 0 <= x175 <= 1
 0 <= x176 <= 1
 0 <= x177 <= 1
 0 <= x178 <= 1
 0 <= x179 <= 1
 0 <= x180 <= 1
 0 <= x181 <= 1
 0 <= x182 <= 1
 0 <= x183 <= 1
 0 <= x184 <= 1
 0 <= x185 <= 1
 0 <= x186 <= 1
 0 <= x187 <= 1
 0 <= x188 <= 1
 0 <= x189 <= 1
 0 <= x190 <= 1
 0 <= x191 <= 1
 0 <= x192 <= 1
 0 <= x193 <= 1
 0 <= x194 <= 1
 0 <= x195 <= 1
 0 <= x196 <= 1
 0 <= x197 <= 1
 0 <= x198 <= 1
 0 <= x199 <= 1
 0 <= x200 <= 1
 0 <= x201 <= 1
 0 <= x202 <= 1
 0 <= x203 <= 1
 0 <= x204 <= 1
 0 <= x205 <= 1
 0 <= x206 <= 1
 0 <= x207 <= 1
 0 <= x208 <= 1
 0 <= x209 <= 1
 0 <= x210 <= 1
 0 <= x211 <= 1
 0 <= x212 <= 1
 0 <= x213 <= 1
 0 <= x214 <= 1
 0 <= x215 <= 1
 0 <= x216 <= 1
 0 <= x217 <= 1
 0 <= x218 <= 1
 0 <= x219 <= 1
 0 <= x220 <= 1
 0 <= x221 <= 1
 0 <= x222 <= 1
 0 <= x223 <= 1
 0 <= x224 <= 1
 0 <= x225 <= 1
 0 <= x226 <= 1
 0 <= x227 <= 1
 0 <= x228 <= 1
 0 <= x229 <= 1
 0 <= x230 <= 1
 0 <= x231 <= 1
 0 <= x232 <= 1
 0 <= x233 <= 1
 0 <= x234 <= 1
 0 <= x235 <= 1
 0 <= x236 <= 1
 0 <= x237 <= 1
 0 <= x238 <= 1
 0 <= x239 <= 1
 0 <= x240 <= 1
 0 <= x241 <= 1
 0 <= x242 <= 1
 0 <= x243 <= 1
 0 <= x244 <= 1
 0 <= x245 <= 1
 0 <= x246 <= 1
 0 <= x247 <= 1
 0 <= x248 <= 1
 0 <= x249 <= 1
 0 <= x250 <= 1
 0 <= x251 <= 1
 0 <= x252 <= 1
 0 <= x253 <= 1
 0 <= x254 <= 1
 0 <= x255 <= 1
 0 <= x256 <= 1
 0 <= x257 <= 1
 0 <= x258 <= 1
 0 <= x259 <= 1
 0 <= x260 <= 1
 0 <= x261 <= 1
 0 <= x262 <= 1
 0 <= x263 <= 1
 0 <= x264 <= 1
 0 <= x265 <= 1
 0 <= x266 <= 1
 0 <= x267 <= 1
 0 <= x268 <= 1
 0 <= x269 <= 1
 0 <= x270 <= 1
 0 <= x271 <= 1
 0 <= x272 <= 1
 0 <= x273 <= 1
 0 <= x274 <= 1
 0 <= x275 <= 1
 0 <= x276 <= 1
 0 <= x277 <= 1
 0 <= x278 <= 1
 0 <= x279 <= 1
 0 <= x280 <= 1
 0 <= x281 <= 1
 0 <= x282 <= 1
 0 <= x283 <= 1
 0 <= x284 <= 1
 0 <= x285 <= 1
 0 <= x286 <= 1
 0 <= x287 <= 1
 0 <= x288 <= 1
 0 <= x289 <= 1
 0 <= x290 <= 1
 0 <= x291 <= 1
 0 <= x292 <= 1
 0 <= x293 <= 1
 0 <= x294 <= 1
 0 <= x295 <= 1
 0 <= x296 <= 1
 0 <= x297 <= 1
 0 <= x298 <= 1
 0 <= x299 <= 1
 0 <= x300 <= 1
Binaries
 x251  x252  x253  x254  x255  x256  x257  x258  x259  x260  x261  x262  x263 
 x264  x265  x266  x267  x268  x269  x270  x271  x272  x273  x274  x275  x276 
 x277  x278  x279  x280  x281  x282  x283  x284  x285  x286  x287  x288  x289 
 x290  x291  x292  x293  x294  x295  x296  x297  x298  x299  x300 
End
